# Solution for model r10_t18_m7_9 Batch Number: 1
# Finished Task: 7 / 18
# Makespan: 520.0, Total Distance: 75.0, Total Time: 4.2021
# R O S F Batch
0 0 -1 0.0 0.0 -1
1 1 26 0.0 0.0 -1
2 2 19 0.0 0.0 -1
3 3 10 0.0 0.0 -1
4 4 -1 0.0 0.0 -1
5 5 -1 0.0 0.0 -1
6 6 21 0.0 0.0 -1
7 7 -1 0.0 0.0 -1
8 8 -1 0.0 0.0 -1
9 9 18 0.0 0.0 -1
10 3 25 98.0 132.0 0
11 -1 -1 -1.0 -1.0 0
12 -1 -1 -1.0 -1.0 0
13 -1 -1 -1.0 -1.0 0
14 -1 -1 -1.0 -1.0 0
15 -1 -1 -1.0 -1.0 0
16 -1 -1 -1.0 -1.0 0
17 6 -1 399.0 423.0 0
18 9 -1 485.0 510.0 0
19 2 -1 499.0 520.0 0
20 -1 -1 -1.0 -1.0 0
21 6 17 371.0 399.0 0
22 -1 -1 -1.0 -1.0 0
23 -1 -1 -1.0 -1.0 0
24 -1 -1 -1.0 -1.0 0
25 3 -1 399.0 436.0 0
26 1 -1 49.0 85.0 0
27 -1 -1 -1.0 -1.0 0
